NAME : G100_3111_01
COMMENT : Generated CVRP instance (n=100)
TYPE : CVRP
DIMENSION : 101
EDGE_WEIGHT_TYPE : EUC_2D
CAPACITY : 3
NODE_COORD_SECTION
1    0    0   
2    817  499 
3    605  811 
4    341  161 
5    403  273 
6    568  243 
7    837  342 
8    819  764 
9    691  221 
10   959  57  
11   501  466 
12   338  640 
13   18   348 
14   780  930 
15   372  974 
16   686  819 
17   63   603 
18   504  409 
19   42   180 
20   357  646 
21   119  274 
22   878  598 
23   212  630 
24   500  951 
25   228  437 
26   957  372 
27   700  368 
28   672  404 
29   933  945 
30   280  950 
31   127  323 
32   806  297 
33   803  142 
34   792  981 
35   63   552 
36   334  594 
37   179  983 
38   18   873 
39   937  586 
40   678  815 
41   925  582 
42   251  516 
43   976  856 
44   30   358 
45   534  788 
46   382  446 
47   316  92  
48   378  949 
49   693  241 
50   369  473 
51   448  720 
52   831  394 
53   437  64  
54   176  893 
55   584  172 
56   334  509 
57   595  757 
58   203  937 
59   339  998 
60   296  637 
61   441  811 
62   736  634 
63   605  846 
64   751  116 
65   994  548 
66   199  176 
67   716  295 
68   144  542 
69   663  149 
70   344  542 
71   464  971 
72   233  238 
73   247  420 
74   656  448 
75   207  301 
76   483  10  
77   26   991 
78   218  511 
79   370  810 
80   250  153 
81   678  215 
82   409  591 
83   925  357 
84   59   661 
85   498  3   
86   404  805 
87   68   288 
88   537  358 
89   808  37  
90   205  269 
91   339  113 
92   461  530 
93   566  122 
94   696  314 
95   637  173 
96   558  920 
97   544  164 
98   12   825 
99   82   191 
100  285  318 
101  912  651 
DEMAND_SECTION
1    0   
2    1   
3    1   
4    1   
5    1   
6    1   
7    1   
8    1   
9    1   
10   1   
11   1   
12   1   
13   1   
14   1   
15   1   
16   1   
17   1   
18   1   
19   1   
20   1   
21   1   
22   1   
23   1   
24   1   
25   1   
26   1   
27   1   
28   1   
29   1   
30   1   
31   1   
32   1   
33   1   
34   1   
35   1   
36   1   
37   1   
38   1   
39   1   
40   1   
41   1   
42   1   
43   1   
44   1   
45   1   
46   1   
47   1   
48   1   
49   1   
50   1   
51   1   
52   1   
53   1   
54   1   
55   1   
56   1   
57   1   
58   1   
59   1   
60   1   
61   1   
62   1   
63   1   
64   1   
65   1   
66   1   
67   1   
68   1   
69   1   
70   1   
71   1   
72   1   
73   1   
74   1   
75   1   
76   1   
77   1   
78   1   
79   1   
80   1   
81   1   
82   1   
83   1   
84   1   
85   1   
86   1   
87   1   
88   1   
89   1   
90   1   
91   1   
92   1   
93   1   
94   1   
95   1   
96   1   
97   1   
98   1   
99   1   
100  1   
101  1   
DEPOT_SECTION
1
-1
EOF
